n = 28;
k = 2;
roles = [
{m, f},
{f, m},
{g, f},
{m, d},
{f, d},
{d, g},
{m, d},
{m, f},
{d, m},
{d, m},
{g, d},
{d, g},
{g, f},
{f, m},
{g, d},
{f, m},
{m, g},
{d, g},
{g, f},
{f, d},
{f, m},
{m, f},
{m, f},
{d, f},
{m, f},
{f, m},
{f, m},
{g, f}
];
num_pairs = 3;
player1 = [23, 1, 16];
player2 = [24, 3, 19];
